10 10 4

0 63 308 347 126 147 450 367 268 404 
270 0 477 481 345 293 496 499 203 372 
338 421 0 455 85 477 114 485 348 151 
146 361 70 0 296 131 84 349 207 181 
299 280 155 409 0 50 339 389 101 131 
141 307 491 219 144 0 412 173 179 144 
444 164 442 94 467 303 0 321 469 384 
355 318 297 242 323 77 348 0 231 284 
186 327 335 474 418 141 465 136 0 443 
376 466 328 226 409 198 168 454 372 0 

376.2 0 1
376.2 1 4
376.2 2 3
376.2 3 4
376.2 4 6
376.2 5 4
376.2 6 5
376.2 7 5
376.2 8 1
376.2 9 2

